Instance name : lrc206
Authors       : Geir Hasle, Oddvar Kloster
Date          : 12.03.2003 06:42:30
Reference     : Chapter in G. Hasle, K-A Lie, E. Quak (eds): Geometric Modelling, Numerical Simulation, and Optimization. ISBN 978-3-540-68782-5, Springer 2007.
Solution
Route  1 : 69 98 82 12 14 47 16 15 11 59 75 86 52 64 84 67 94 81 90 66 56 50 34 32 101 26 89 20 24 48 25 77 58 74
Route  2 : 5 45 2 71 72 42 44 102 39 36 40 38 41 61 88 53 78 73 79 7 6 8 46 4 3 1 43 35 37 54 96 93 91 80
Route  3 : 65 83 92 95 62 31 29 27 28 30 33 63 85 51 76 18 21 23 19 49 22 57 99 87 97 9 13 10 17 60 55 100 70 68
